part_one/tsp.lp
\ENCODING=ISO-8859-1
\Problem name: 

Minimize
 obj1: 5.02493781056044 x_4_3#0 + 7.03491293478462 x_4_3#1
       + 1.9723082923316 x_4_3#2 + 4.00499687890016 x_4_3#3
       + 5.02493781056044 x_4_3#4 + 2.33238075793812 x_4_3#5
       + 4.17612260356422 x_4_3#6 + 1.04403065089105 x_4_3#7
       + 7.03491293478462 x_4_3#8 + 2.33238075793812 x_4_3#9
       + 6.46219776856141 x_4_3#10 + 3.13209195267317 x_4_3#11
       + 1.9723082923316 x_4_3#12 + 4.17612260356422 x_4_3#13
       + 6.46219776856141 x_4_3#14 + 3.35410196624968 x_4_3#15
       + 4.00499687890016 x_4_3#16 + 1.04403065089105 x_4_3#17
       + 3.13209195267317 x_4_3#18 + 3.35410196624968 x_4_3#19
Subject To
 c1:  x_4_3#20 - x_4_3#24 - x_4_3#25 - x_4_3#26 + x_4_3#27 + x_4_3#30
      + x_4_3#33  = 1
 c2:  x_4_3#21 + x_4_3#24 - x_4_3#27 - x_4_3#28 - x_4_3#29 + x_4_3#31
      + x_4_3#34  = 1
 c3:  x_4_3#22 + x_4_3#25 + x_4_3#28 - x_4_3#30 - x_4_3#31 - x_4_3#32
      + x_4_3#35  = 1
 c4:  x_4_3#23 + x_4_3#26 + x_4_3#29 + x_4_3#32 - x_4_3#33 - x_4_3#34
      - x_4_3#35  = 1
 c5:  x_4_3#0 + x_4_3#1 + x_4_3#2 + x_4_3#3  = 1
 c6:  x_4_3#4 + x_4_3#5 + x_4_3#6 + x_4_3#7  = 1
 c7:  x_4_3#8 + x_4_3#9 + x_4_3#10 + x_4_3#11  = 1
 c8:  x_4_3#12 + x_4_3#13 + x_4_3#14 + x_4_3#15  = 1
 c9:  x_4_3#16 + x_4_3#17 + x_4_3#18 + x_4_3#19  = 1
 c10: x_4_3#4 + x_4_3#8 + x_4_3#12 + x_4_3#16  = 1
 c11: x_4_3#0 + x_4_3#9 + x_4_3#13 + x_4_3#17  = 1
 c12: x_4_3#1 + x_4_3#5 + x_4_3#14 + x_4_3#18  = 1
 c13: x_4_3#2 + x_4_3#6 + x_4_3#10 + x_4_3#19  = 1
 c14: x_4_3#3 + x_4_3#7 + x_4_3#11 + x_4_3#15  = 1
 c15: - 4 x_4_3#0 + x_4_3#20 <= 0
 c16: - 4 x_4_3#1 + x_4_3#21 <= 0
 c17: - 4 x_4_3#2 + x_4_3#22 <= 0
 c18: - 4 x_4_3#3 + x_4_3#23 <= 0
 c19: - 4 x_4_3#5 + x_4_3#24 <= 0
 c20: - 4 x_4_3#6 + x_4_3#25 <= 0
 c21: - 4 x_4_3#7 + x_4_3#26 <= 0
 c22: - 4 x_4_3#9 + x_4_3#27 <= 0
 c23: - 4 x_4_3#10 + x_4_3#28 <= 0
 c24: - 4 x_4_3#11 + x_4_3#29 <= 0
 c25: - 4 x_4_3#13 + x_4_3#30 <= 0
 c26: - 4 x_4_3#14 + x_4_3#31 <= 0
 c27: - 4 x_4_3#15 + x_4_3#32 <= 0
 c28: - 4 x_4_3#17 + x_4_3#33 <= 0
 c29: - 4 x_4_3#18 + x_4_3#34 <= 0
 c30: - 4 x_4_3#19 + x_4_3#35 <= 0
Bounds
 0 <= x_4_3#0 <= 1
 0 <= x_4_3#1 <= 1
 0 <= x_4_3#2 <= 1
 0 <= x_4_3#3 <= 1
 0 <= x_4_3#4 <= 1
 0 <= x_4_3#5 <= 1
 0 <= x_4_3#6 <= 1
 0 <= x_4_3#7 <= 1
 0 <= x_4_3#8 <= 1
 0 <= x_4_3#9 <= 1
 0 <= x_4_3#10 <= 1
 0 <= x_4_3#11 <= 1
 0 <= x_4_3#12 <= 1
 0 <= x_4_3#13 <= 1
 0 <= x_4_3#14 <= 1
 0 <= x_4_3#15 <= 1
 0 <= x_4_3#16 <= 1
 0 <= x_4_3#17 <= 1
 0 <= x_4_3#18 <= 1
 0 <= x_4_3#19 <= 1
Binaries
 x_4_3#0  x_4_3#1  x_4_3#2  x_4_3#3  x_4_3#4  x_4_3#5  x_4_3#6  x_4_3#7 
 x_4_3#8  x_4_3#9  x_4_3#10  x_4_3#11  x_4_3#12  x_4_3#13  x_4_3#14  x_4_3#15 
 x_4_3#16  x_4_3#17  x_4_3#18  x_4_3#19 
End
