part_one/tsp.sol
<?xml version = "1.0" encoding="UTF-8" standalone="yes"?>
<CPLEXSolution version="1.2">
 <header
   problemName=""
   solutionName="incumbent"
   solutionIndex="-1"
   objectiveValue="13"
   solutionTypeValue="3"
   solutionTypeString="primal"
   solutionStatusValue="101"
   solutionStatusString="integer optimal solution"
   solutionMethodString="mip"
   primalFeasible="1"
   dualFeasible="1"
   MIPNodes="0"
   MIPIterations="16"
   writeLevel="1"/>
 <quality
   epInt="1.0000000000000001e-05"
   epRHS="9.9999999999999995e-07"
   maxIntInfeas="0"
   maxPrimalInfeas="1.7763568394002505e-15"
   maxX="4.0000000000000009"
   maxSlack="3"/>
 <linearConstraints>
  <constraint index="0" slack="0"/>
  <constraint index="1" slack="0"/>
  <constraint index="2" slack="8.8817841970012523e-16"/>
  <constraint index="3" slack="-1.7763568394002505e-15"/>
  <constraint index="4" slack="0"/>
  <constraint index="5" slack="0"/>
  <constraint index="6" slack="0"/>
  <constraint index="7" slack="0"/>
  <constraint index="8" slack="0"/>
  <constraint index="9" slack="0"/>
  <constraint index="10" slack="0"/>
  <constraint index="11" slack="0"/>
  <constraint index="12" slack="0"/>
  <constraint index="13" slack="0"/>
  <constraint index="14" slack="0"/>
  <constraint index="15" slack="-8.8817841970012523e-16"/>
  <constraint index="16" slack="0"/>
  <constraint index="17" slack="0"/>
  <constraint index="18" slack="0"/>
  <constraint index="19" slack="0"/>
  <constraint index="20" slack="0"/>
  <constraint index="21" slack="0"/>
  <constraint index="22" slack="0.99999999999999911"/>
  <constraint index="23" slack="0"/>
  <constraint index="24" slack="0"/>
  <constraint index="25" slack="0"/>
  <constraint index="26" slack="1.9999999999999982"/>
  <constraint index="27" slack="3"/>
  <constraint index="28" slack="0"/>
  <constraint index="29" slack="0"/>
 </linearConstraints>
 <variables>
  <variable name="y_01" index="0" value="0"/>
  <variable name="y_02" index="1" value="1"/>
  <variable name="y_03" index="2" value="0"/>
  <variable name="y_04" index="3" value="0"/>
  <variable name="y_10" index="4" value="1"/>
  <variable name="y_12" index="5" value="0"/>
  <variable name="y_13" index="6" value="0"/>
  <variable name="y_14" index="7" value="0"/>
  <variable name="y_20" index="8" value="0"/>
  <variable name="y_21" index="9" value="0"/>
  <variable name="y_23" index="10" value="1"/>
  <variable name="y_24" index="11" value="0"/>
  <variable name="y_30" index="12" value="0"/>
  <variable name="y_31" index="13" value="0"/>
  <variable name="y_32" index="14" value="0"/>
  <variable name="y_34" index="15" value="1"/>
  <variable name="y_40" index="16" value="0"/>
  <variable name="y_41" index="17" value="1"/>
  <variable name="y_42" index="18" value="0"/>
  <variable name="y_43" index="19" value="0"/>
  <variable name="x_01" index="20" value="0"/>
  <variable name="x_02" index="21" value="4.0000000000000009"/>
  <variable name="x_03" index="22" value="0"/>
  <variable name="x_04" index="23" value="0"/>
  <variable name="x_12" index="24" value="0"/>
  <variable name="x_13" index="25" value="0"/>
  <variable name="x_14" index="26" value="0"/>
  <variable name="x_21" index="27" value="0"/>
  <variable name="x_23" index="28" value="3.0000000000000009"/>
  <variable name="x_24" index="29" value="0"/>
  <variable name="x_31" index="30" value="0"/>
  <variable name="x_32" index="31" value="0"/>
  <variable name="x_34" index="32" value="2.0000000000000018"/>
  <variable name="x_41" index="33" value="1"/>
  <variable name="x_42" index="34" value="0"/>
  <variable name="x_43" index="35" value="0"/>
 </variables>
 <objectiveValues>
  <objective index="0" name="" value="13"/>
 </objectiveValues>
</CPLEXSolution>
